New structure
1.0
        3.2300000191         0.0000000000         0.0000000000
       -1.6150000095         2.7972620707         0.0000000000
        0.0000000000         0.0000000000        20.0000000000
   Mo    S   Se
    1    1    1
Direct
     0.000000000         0.000000000         0.500000000
     0.666666985         0.333332986         0.423000008
     0.666666985         0.333332986         0.585500002
